x low 4.00
p edge 85 240
n 0 1.00
n 6 1.00
n 7 1.00
n 8 1.00
n 9 1.00
n 10 1.00
n 11 1.00
n 12 1.00
n 2 1.00
n 5 1.00
n 4 1.00
n 31 1.00
n 30 1.00
n 29 1.00
n 33 1.00
n 32 1.00
n 62 1.00
n 26 1.00
n 24 1.00
n 21 1.00
n 15 1.00
n 17 1.00
n 18 1.00
n 19 1.00
n 13 1.00
n 50 1.00
n 14 1.00
n 16 1.00
n 49 1.00
n 48 1.00
n 47 1.00
n 46 1.00
n 45 1.00
n 44 1.00
n 43 1.00
n 42 1.00
n 41 1.00
n 40 1.00
n 20 1.00
n 39 1.00
n 22 1.00
n 38 1.00
n 23 1.00
n 37 1.00
n 25 1.00
n 27 1.00
n 36 1.00
n 54 1.00
n 35 1.00
n 34 1.00
n 28 1.00
n 58 1.00
n 61 1.00
n 53 1.00
n 56 1.00
n 55 1.00
n 51 1.00
n 52 1.00
n 103 1.00
n 88 1.00
n 87 1.00
n 86 1.00
n 85 1.00
n 84 1.00
n 57 1.00
n 83 1.00
n 82 1.00
n 60 1.00
n 59 1.00
n 66 1.00
n 65 1.00
n 64 1.00
n 71 1.00
n 80 1.00
n 72 1.00
n 81 1.00
n 116 1.00
n 114 1.00
n 90 1.00
n 100 1.00
n 89 1.00
n 102 1.00
n 101 1.00
n 113 1.00
n 111 1.00
e 0 6
e 0 7
e 0 8
e 0 9
e 0 10
e 0 11
e 0 12
e 2 6
e 2 5
e 4 31
e 4 5
e 4 30
e 4 29
e 4 33
e 4 32
e 4 62
e 5 31
e 5 6
e 6 26
e 6 24
e 6 7
e 6 31
e 7 24
e 7 21
e 7 8
e 8 15
e 8 9
e 8 17
e 8 18
e 8 19
e 8 21
e 9 13
e 9 10
e 9 15
e 10 13
e 10 11
e 11 13
e 11 12
e 12 50
e 12 13
e 13 50
e 13 14
e 13 15
e 13 16
e 14 49
e 14 50
e 14 48
e 14 47
e 14 46
e 14 16
e 15 16
e 15 17
e 16 46
e 16 45
e 16 17
e 17 45
e 17 44
e 17 43
e 17 18
e 18 43
e 18 42
e 18 19
e 19 42
e 19 41
e 19 40
e 19 20
e 19 21
e 20 40
e 20 39
e 20 22
e 20 21
e 20 38
e 21 22
e 21 23
e 21 24
e 22 38
e 22 23
e 22 37
e 23 24
e 23 37
e 23 25
e 24 25
e 24 26
e 24 27
e 25 37
e 25 36
e 25 54
e 25 35
e 25 34
e 25 27
e 25 28
e 26 27
e 26 31
e 26 30
e 27 28
e 27 30
e 27 29
e 28 34
e 28 29
e 28 33
e 29 30
e 29 33
e 30 31
e 32 58
e 32 35
e 32 33
e 32 61
e 32 62
e 33 35
e 33 34
e 34 35
e 35 54
e 35 58
e 36 38
e 36 39
e 36 37
e 36 54
e 37 38
e 38 39
e 39 40
e 39 54
e 40 41
e 40 53
e 40 56
e 40 54
e 40 55
e 41 42
e 41 53
e 42 43
e 42 53
e 43 53
e 43 44
e 44 45
e 44 51
e 44 53
e 45 46
e 45 51
e 46 47
e 46 52
e 46 51
e 47 48
e 47 52
e 48 49
e 48 52
e 49 50
e 49 52
e 50 103
e 50 88
e 50 87
e 50 52
e 51 52
e 51 53
e 52 87
e 52 53
e 52 86
e 53 86
e 53 85
e 53 84
e 53 56
e 54 55
e 54 57
e 54 58
e 55 56
e 55 57
e 56 84
e 56 57
e 56 83
e 56 82
e 57 58
e 57 60
e 57 59
e 57 82
e 57 66
e 58 60
e 58 61
e 59 60
e 59 61
e 59 66
e 59 65
e 60 61
e 61 65
e 61 62
e 62 64
e 62 65
e 64 66
e 64 65
e 64 71
e 65 66
e 66 82
e 66 80
e 66 71
e 66 72
e 71 72
e 72 80
e 80 82
e 80 81
e 80 116
e 81 82
e 81 83
e 81 114
e 81 116
e 82 83
e 83 84
e 83 90
e 83 100
e 83 114
e 84 89
e 84 85
e 84 90
e 85 89
e 85 86
e 86 89
e 86 87
e 87 88
e 87 89
e 88 103
e 88 102
e 88 89
e 89 102
e 89 101
e 89 90
e 90 101
e 90 100
e 100 101
e 100 113
e 100 114
e 101 113
e 101 102
e 102 111
e 102 103
e 102 113
e 103 111
e 113 114
e 0 2
e 2 4
e 71 62
e 116 72
e 116 114
e 113 111
e 50 111
